304 1097
998 532
1582 968
1223 114
836 676
547 654
1339 571
750 1471
587 650
1082 330
984 1144
148 1170
930 1353
899 896
232 142
959 1378
125 1157
57 1138
1503 1063
1142 1350
468 485
916 1117
1286 1256
1152 1029
1283 386
1436 150
989 929
798 981
1088 262
193 636
505 836
1024 1083
1124 812
238 177
95 1141
592 1415
1399 163
34 1226
1338 761
271 1354
517 196
1067 806
216 970
972 279
204 232
1506 736
561 479
849 338
296 1291
1127 349
1266 326
1251 823
749 704
543 449
1581 952
1233 522
291 476
1251 1203
506 1353
236 194
1525 28
1578 712
206 754
702 1481
1030 1213
1147 1393
1177 943
906 293
1105 181
1306 1585
629 69
163 1090
1206 1043
1577 482
576 1310
